
n_res = 6;
rcap = [31, 25, 430, 430, 421, 429];
rtype = [1, 1, 2, 2, 2, 2];
n_tasks = 50;
modes =  [{1, 2, 3, 4, 5, 6}, {7, 8, 9, 10, 11, 12}, {13, 14, 15, 16, 17, 18}, {19, 20, 21, 22, 23, 24}, {25, 26, 27, 28, 29, 30}, {31, 32, 33, 34, 35, 36}, {37, 38, 39, 40, 41, 42}, {43, 44, 45, 46, 47, 48}, {49, 50, 51, 52, 53, 54}, {55, 56, 57, 58, 59, 60}, {61, 62, 63, 64, 65, 66}, {67, 68, 69, 70, 71, 72}, {73, 74, 75, 76, 77, 78}, {79, 80, 81, 82, 83, 84}, {85, 86, 87, 88, 89, 90}, {91, 92, 93, 94, 95, 96}, {97, 98, 99, 100, 101, 102}, {103, 104, 105, 106, 107, 108}, {109, 110, 111, 112, 113, 114}, {115, 116, 117, 118, 119, 120}, {121, 122, 123, 124, 125, 126}, {127, 128, 129, 130, 131, 132}, {133, 134, 135, 136, 137, 138}, {139, 140, 141, 142, 143, 144}, {145, 146, 147, 148, 149, 150}, {151, 152, 153, 154, 155, 156}, {157, 158, 159, 160, 161, 162}, {163, 164, 165, 166, 167, 168}, {169, 170, 171, 172, 173, 174}, {175, 176, 177, 178, 179, 180}, {181, 182, 183, 184, 185, 186}, {187, 188, 189, 190, 191, 192}, {193, 194, 195, 196, 197, 198}, {199, 200, 201, 202, 203, 204}, {205, 206, 207, 208, 209, 210}, {211, 212, 213, 214, 215, 216}, {217, 218, 219, 220, 221, 222}, {223, 224, 225, 226, 227, 228}, {229, 230, 231, 232, 233, 234}, {235, 236, 237, 238, 239, 240}, {241, 242, 243, 244, 245, 246}, {247, 248, 249, 250, 251, 252}, {253, 254, 255, 256, 257, 258}, {259, 260, 261, 262, 263, 264}, {265, 266, 267, 268, 269, 270}, {271, 272, 273, 274, 275, 276}, {277, 278, 279, 280, 281, 282}, {283, 284, 285, 286, 287, 288}, {289, 290, 291, 292, 293, 294}, {295, 296, 297, 298, 299, 300}];
succ =  [{26, 24, 23, 22, 21, 19, 18, 17, 16, 15, 11, 6}, {33, 24, 22, 21, 11, 8}, {34, 25, 24, 23, 22, 20, 18, 16}, {30, 23, 10}, {34, 24, 23, 17, 16}, {34, 33, 32, 29, 27, 25, 20}, {33, 32, 29, 27, 25, 23, 20}, {34, 32, 29, 25, 23, 20}, {33, 27, 26, 25, 23, 20}, {28, 27, 26, 21, 19}, {34, 29, 27, 25, 20}, {50, 38, 32, 29, 25, 24}, {34, 25, 20}, {37, 32, 31, 30, 29, 27, 25}, {37, 35, 34, 32, 31, 28, 25}, {50, 49, 48, 41, 37, 31, 30, 27}, {50, 37, 35, 32, 28, 25}, {49, 48, 42, 41, 40, 38, 37, 35, 33, 28}, {49, 41, 40, 37, 36, 32, 31, 29}, {50, 49, 42, 37, 35, 31, 30, 28}, {50, 49, 45, 40, 38, 37, 34, 29}, {49, 41, 38, 37, 36, 32, 30, 28}, {50, 49, 48, 45, 42, 39, 38, 37, 36, 35}, {48, 42, 41, 37, 35, 30, 28}, {49, 48, 46, 42, 41, 40, 36}, {48, 47, 46, 42, 41, 39, 36}, {45, 39, 36, 35}, {47, 46, 45, 44, 39}, {48, 43, 35}, {47, 45, 44, 40}, {45, 39, 38}, {48, 47, 45, 44}, {50, 46, 44, 43}, {39, 36}, {47, 46, 44}, {44, 43}, {44, 43}, {44, 43}, {43}, {43}, {45}, {43}, {}, {}, {}, {}, {}, {}, {}, {}];
n_opt = 300;
dur = [2, 3, 10, 15, 16, 17, 4, 6, 14, 16, 17, 20, 1, 8, 9, 10, 11, 12, 9, 10, 11, 12, 19, 20, 1, 2, 4, 5, 7, 11, 3, 4, 6, 12, 17, 20, 2, 5, 8, 9, 15, 16, 6, 10, 11, 15, 16, 17, 1, 2, 3, 4, 9, 13, 2, 3, 6, 10, 12, 16, 11, 12, 17, 18, 19, 20, 3, 8, 11, 12, 13, 20, 4, 5, 7, 9, 15, 17, 3, 4, 5, 6, 11, 18, 4, 5, 11, 12, 13, 14, 1, 3, 4, 14, 15, 16, 5, 7, 8, 13, 18, 19, 2, 3, 13, 17, 18, 19, 3, 5, 9, 10, 17, 19, 3, 5, 11, 12, 13, 14, 5, 6, 7, 11, 17, 20, 2, 6, 10, 12, 17, 18, 2, 3, 4, 7, 12, 13, 7, 8, 11, 16, 17, 19, 5, 6, 10, 11, 12, 14, 1, 3, 6, 7, 8, 11, 5, 6, 7, 15, 16, 17, 4, 12, 14, 16, 18, 20, 1, 4, 8, 10, 13, 16, 4, 5, 6, 13, 15, 16, 6, 7, 10, 11, 13, 17, 9, 13, 14, 15, 17, 18, 2, 5, 6, 8, 10, 15, 1, 4, 6, 14, 15, 16, 1, 2, 5, 16, 17, 18, 5, 7, 8, 11, 17, 20, 2, 6, 8, 16, 17, 20, 2, 4, 5, 7, 11, 17, 1, 5, 7, 9, 11, 16, 1, 9, 10, 13, 18, 20, 2, 4, 8, 13, 14, 15, 6, 7, 10, 11, 12, 16, 1, 2, 3, 10, 13, 14, 3, 7, 13, 14, 15, 16, 1, 6, 7, 9, 12, 15, 2, 3, 6, 8, 19, 20, 3, 4, 10, 15, 18, 20, 9, 10, 12, 13, 14, 15, 8, 9, 13, 15, 16, 17, 4, 9, 11, 12, 13, 14];
rreq = [|1, 1, 1, 1, 1, 1, 5, 5, 5, 5, 5, 5, 2, 1, 1, 1, 1, 1, 4, 4, 3, 3, 2, 2, 4, 4, 3, 3, 2, 1, 4, 3, 3, 2, 2, 2, 5, 4, 4, 4, 3, 3, 1, 1, 1, 1, 1, 1, 2, 2, 2, 2, 2, 2, 5, 4, 4, 4, 3, 3, 4, 3, 3, 2, 2, 2, 4, 3, 3, 2, 2, 2, 2, 2, 2, 2, 2, 2, 5, 4, 4, 4, 3, 3, 3, 3, 3, 3, 3, 3, 1, 1, 1, 1, 1, 1, 3, 3, 3, 2, 1, 1, 1, 1, 1, 1, 1, 1, 3, 3, 3, 3, 3, 3, 1, 1, 1, 1, 1, 1, 2, 1, 1, 1, 1, 1, 5, 4, 3, 3, 1, 1, 1, 1, 1, 1, 1, 1, 5, 4, 4, 3, 3, 3, 3, 2, 2, 2, 2, 2, 2, 2, 2, 2, 2, 2, 3, 3, 3, 3, 3, 3, 5, 4, 4, 3, 3, 3, 2, 2, 2, 2, 2, 2, 4, 4, 3, 3, 3, 2, 3, 3, 3, 2, 1, 1, 3, 3, 3, 3, 3, 3, 5, 4, 4, 3, 3, 2, 1, 1, 1, 1, 1, 1, 3, 3, 3, 3, 3, 3, 5, 4, 3, 2, 2, 1, 2, 2, 2, 2, 2, 2, 4, 4, 4, 3, 3, 3, 5, 4, 3, 3, 1, 1, 4, 3, 3, 2, 1, 1, 5, 4, 3, 3, 1, 1, 5, 4, 4, 4, 3, 3, 3, 3, 3, 3, 3, 3, 3, 3, 3, 3, 3, 3, 2, 1, 1, 1, 1, 1, 4, 4, 4, 3, 3, 2, 4, 3, 3, 2, 2, 1, 4, 3, 3, 3, 3, 3, 2, 1, 1, 1, 1, 1, 5, 4, 4, 4, 3, 3
 |5, 4, 4, 4, 3, 3, 3, 2, 2, 1, 1, 1, 3, 3, 3, 3, 3, 3, 3, 2, 2, 2, 2, 2, 3, 2, 2, 1, 1, 1, 3, 3, 3, 3, 3, 3, 3, 3, 3, 3, 3, 3, 2, 2, 2, 2, 1, 1, 4, 3, 3, 2, 1, 1, 3, 3, 3, 3, 3, 3, 3, 3, 3, 2, 2, 1, 3, 2, 2, 2, 1, 1, 2, 2, 2, 1, 1, 1, 2, 2, 2, 2, 2, 2, 2, 2, 2, 2, 2, 2, 4, 3, 3, 3, 3, 3, 2, 2, 2, 2, 2, 2, 3, 2, 2, 2, 2, 2, 4, 4, 4, 3, 3, 2, 2, 2, 2, 2, 1, 1, 3, 2, 2, 1, 1, 1, 5, 5, 5, 5, 5, 5, 4, 4, 4, 4, 3, 3, 2, 1, 1, 1, 1, 1, 3, 2, 2, 2, 2, 2, 3, 3, 3, 2, 2, 2, 1, 1, 1, 1, 1, 1, 4, 3, 3, 2, 2, 2, 3, 2, 2, 2, 1, 1, 5, 4, 3, 3, 2, 2, 4, 4, 3, 3, 3, 2, 1, 1, 1, 1, 1, 1, 5, 4, 4, 3, 3, 3, 2, 1, 1, 1, 1, 1, 1, 1, 1, 1, 1, 1, 4, 4, 4, 4, 4, 4, 3, 2, 2, 1, 1, 1, 5, 4, 4, 4, 4, 4, 2, 2, 2, 1, 1, 1, 2, 1, 1, 1, 1, 1, 3, 3, 3, 3, 2, 2, 2, 2, 2, 2, 2, 2, 3, 3, 2, 2, 2, 1, 5, 5, 5, 5, 5, 5, 5, 4, 3, 3, 1, 1, 4, 4, 4, 4, 4, 4, 2, 2, 2, 2, 2, 2, 3, 3, 3, 3, 3, 3, 4, 4, 4, 4, 4, 4, 4, 4, 4, 4, 4, 4
 |20, 16, 11, 7, 7, 3, 13, 12, 12, 11, 10, 10, 18, 17, 15, 15, 13, 12, 18, 17, 15, 14, 13, 12, 7, 6, 6, 6, 6, 6, 14, 12, 9, 6, 5, 4, 17, 15, 11, 10, 8, 5, 15, 14, 12, 11, 10, 7, 18, 16, 15, 14, 13, 12, 10, 10, 8, 7, 5, 5, 16, 15, 14, 14, 13, 12, 15, 15, 11, 8, 8, 4, 19, 17, 14, 14, 13, 11, 19, 19, 18, 18, 17, 17, 16, 14, 13, 11, 10, 9, 13, 12, 11, 9, 9, 6, 10, 8, 7, 7, 4, 4, 19, 15, 13, 11, 10, 7, 16, 15, 12, 8, 4, 2, 13, 13, 11, 11, 10, 8, 16, 14, 10, 10, 7, 5, 15, 12, 10, 8, 7, 5, 16, 14, 10, 8, 8, 4, 11, 10, 9, 9, 8, 8, 16, 12, 11, 7, 4, 4, 7, 6, 4, 3, 2, 2, 7, 7, 6, 4, 4, 2, 16, 15, 15, 14, 14, 13, 13, 13, 13, 12, 12, 11, 18, 16, 14, 12, 11, 9, 12, 12, 11, 11, 9, 9, 11, 10, 10, 10, 10, 10, 5, 5, 5, 4, 4, 4, 10, 9, 8, 7, 6, 6, 15, 14, 12, 12, 11, 10, 11, 10, 8, 5, 4, 1, 2, 2, 2, 2, 1, 1, 11, 10, 9, 7, 7, 5, 8, 8, 8, 7, 7, 6, 16, 15, 15, 14, 14, 14, 10, 10, 8, 8, 7, 6, 13, 12, 11, 11, 11, 10, 18, 17, 17, 15, 14, 13, 11, 11, 7, 6, 5, 2, 4, 4, 3, 3, 3, 2, 16, 14, 14, 12, 7, 5, 13, 12, 12, 11, 11, 11, 12, 11, 10, 9, 7, 6, 10, 9, 8, 6, 5, 5, 15, 12, 12, 10, 9, 7
 |11, 8, 7, 6, 5, 3, 14, 12, 9, 7, 6, 5, 7, 7, 7, 6, 6, 6, 15, 15, 14, 14, 13, 13, 19, 18, 16, 15, 13, 12, 12, 11, 9, 8, 8, 6, 14, 13, 11, 8, 6, 4, 16, 16, 14, 14, 13, 11, 5, 5, 4, 4, 3, 2, 14, 13, 10, 9, 7, 5, 18, 17, 16, 14, 13, 13, 12, 12, 12, 12, 12, 12, 18, 17, 16, 16, 14, 14, 9, 9, 9, 8, 8, 8, 12, 11, 10, 8, 7, 7, 11, 8, 8, 4, 2, 2, 9, 7, 6, 4, 3, 3, 4, 3, 3, 3, 2, 2, 8, 8, 8, 7, 7, 7, 9, 8, 6, 5, 4, 4, 11, 10, 10, 9, 8, 8, 17, 12, 11, 10, 7, 6, 19, 18, 18, 17, 17, 16, 13, 11, 8, 5, 3, 3, 17, 16, 15, 15, 14, 14, 14, 13, 11, 8, 6, 1, 13, 11, 10, 9, 8, 8, 19, 18, 18, 17, 16, 15, 8, 6, 6, 5, 4, 3, 4, 4, 4, 4, 4, 4, 15, 14, 13, 11, 11, 9, 8, 8, 8, 7, 7, 6, 14, 14, 12, 12, 11, 10, 7, 5, 5, 4, 2, 2, 9, 8, 7, 6, 5, 5, 12, 12, 11, 9, 9, 8, 16, 13, 12, 10, 9, 8, 5, 4, 3, 3, 2, 1, 13, 13, 13, 12, 12, 11, 19, 18, 16, 14, 14, 12, 18, 16, 16, 14, 13, 13, 16, 12, 10, 6, 5, 3, 14, 10, 10, 7, 6, 4, 15, 14, 13, 11, 7, 7, 15, 14, 14, 14, 14, 14, 18, 13, 11, 10, 7, 5, 14, 11, 9, 7, 5, 2, 9, 8, 7, 6, 5, 5, 9, 7, 7, 6, 4, 4, 19, 18, 18, 17, 17, 16
 |10, 10, 10, 10, 10, 10, 13, 12, 11, 9, 9, 8, 18, 15, 13, 13, 11, 9, 15, 14, 14, 14, 14, 14, 7, 6, 6, 6, 5, 5, 16, 13, 10, 10, 6, 5, 9, 7, 7, 6, 5, 5, 15, 14, 13, 12, 11, 10, 14, 13, 13, 12, 10, 9, 17, 14, 11, 9, 6, 5, 12, 12, 12, 11, 11, 10, 11, 10, 9, 8, 7, 6, 8, 8, 7, 6, 6, 5, 8, 7, 7, 5, 4, 3, 12, 11, 9, 9, 7, 6, 16, 15, 12, 10, 5, 2, 19, 19, 19, 19, 19, 19, 17, 14, 9, 6, 4, 3, 16, 14, 13, 10, 8, 8, 9, 7, 5, 4, 3, 1, 3, 2, 2, 2, 1, 1, 17, 16, 14, 13, 9, 8, 17, 16, 13, 9, 5, 4, 2, 2, 2, 2, 2, 2, 18, 17, 17, 16, 14, 13, 5, 5, 4, 3, 2, 2, 20, 19, 18, 16, 16, 15, 14, 12, 11, 9, 9, 8, 7, 7, 7, 7, 6, 6, 17, 15, 14, 13, 9, 8, 15, 14, 13, 12, 11, 9, 5, 5, 4, 3, 2, 2, 11, 9, 8, 5, 3, 1, 18, 17, 14, 14, 11, 10, 17, 17, 15, 14, 13, 13, 20, 15, 14, 9, 7, 4, 11, 11, 7, 5, 3, 3, 10, 10, 10, 10, 10, 10, 5, 4, 4, 4, 3, 3, 14, 13, 13, 13, 13, 13, 14, 13, 13, 12, 12, 12, 12, 11, 11, 10, 10, 10, 8, 6, 4, 3, 3, 2, 7, 6, 5, 5, 4, 3, 15, 15, 14, 12, 11, 11, 8, 7, 6, 6, 5, 4, 9, 9, 9, 9, 9, 9, 12, 12, 10, 10, 8, 7, 10, 10, 9, 9, 7, 7, 13, 13, 13, 13, 13, 13
 |15, 14, 14, 13, 13, 12, 11, 10, 6, 5, 2, 1, 20, 18, 18, 17, 16, 16, 14, 12, 9, 6, 5, 3, 12, 9, 7, 5, 4, 1, 19, 16, 14, 10, 8, 6, 15, 13, 11, 8, 3, 2, 15, 13, 11, 9, 9, 8, 15, 15, 14, 14, 14, 13, 8, 7, 7, 7, 7, 7, 15, 14, 13, 13, 11, 11, 20, 17, 16, 16, 13, 13, 18, 16, 14, 13, 10, 9, 15, 14, 12, 9, 7, 6, 6, 5, 5, 5, 3, 3, 17, 14, 11, 8, 6, 3, 10, 8, 7, 7, 5, 4, 17, 16, 15, 14, 13, 12, 14, 14, 13, 12, 11, 11, 17, 16, 15, 11, 9, 7, 14, 13, 12, 10, 10, 9, 9, 6, 5, 5, 2, 1, 15, 12, 11, 9, 7, 5, 10, 8, 6, 4, 2, 1, 15, 15, 15, 15, 15, 15, 17, 17, 16, 13, 11, 11, 14, 11, 9, 6, 5, 3, 8, 8, 7, 7, 6, 5, 18, 14, 13, 11, 7, 5, 16, 13, 9, 9, 5, 2, 13, 11, 9, 8, 7, 3, 9, 9, 9, 9, 9, 9, 14, 13, 11, 11, 10, 9, 11, 9, 8, 7, 5, 3, 18, 15, 14, 11, 9, 8, 9, 8, 8, 8, 7, 7, 18, 17, 14, 13, 10, 10, 18, 16, 13, 12, 9, 8, 18, 18, 18, 18, 18, 18, 20, 16, 16, 12, 10, 9, 9, 9, 8, 7, 6, 4, 8, 8, 8, 8, 7, 7, 17, 15, 15, 14, 10, 10, 11, 11, 10, 9, 7, 6, 3, 2, 2, 2, 1, 1, 15, 13, 12, 8, 7, 6, 16, 15, 14, 13, 10, 10, 7, 5, 5, 3, 2, 2, 12, 11, 9, 9, 8, 7, 5, 4, 3, 4, 3, 3|];